c status 67 1469274380996
c status 30 1469274380996
c status 25 1469274381000
s td 25 25 83
b 1 13 2 1
b 2 24 2 1
b 3 46 2 1 35
b 4 10 11 12 14 2 1
b 5 82 75 77 69 62 55 1 34 49
b 6 75 77 69 62 55 81 1 34 49
b 7 3 79 83 5 6 7 8 9 2 1 35 57
b 8 5 6 7 8 9 2 1 4 35 57
b 9 30 25 36 39 40 41 42 43 44 22 45 47 48 50 51 52 72 73 74 76 78 80
b 10 69 62 55 81 70 71 1 34 49
b 11 17 68 2 1 4 15 16 35 57
b 12 19 68 2 1 4 15 16 18 35 57
b 13 20 21 23 68 2 1 4 15 16 18 35 57
b 14 23 68 2 1 4 15 16 18 35 57 22
b 15 68 26 27 28 29 31 32 33 37 2 1 4 15 16 18 35 57 22
b 16 37 2 1 4 15 16 18 34 35 57 22
b 17 62 55 81 65 66 63 67 70 71 1 34 49 64
b 18 55 81 65 66 63 67 70 71 1 34 49 56 58 59 60 61 64
b 19 81 65 66 63 67 70 71 2 1 4 15 16 18 34 35 49 57 22 56 58 59 60 61 64
b 20 65 66 63 67 70 71 2 1 4 15 16 18 34 35 49 57 22 45 54 56 58 59 60 61 64
b 21 63 67 70 71 2 1 4 15 16 18 34 35 49 57 22 45 53 54 56 58 59 60 61 64
b 22 38 2 1 4 15 16 18 34 35 57 22
b 23 2 1 4 15 16 18 34 35 49 57 22 45 53 54 56 58 59 60 61 64 72
b 24 1 4 15 16 18 34 35 49 57 22 45 53 54 56 58 59 60 61 64 72 73 74 76 78 80
b 25 22 45 47 48 50 51 52 53 54 56 58 59 60 61 64 72 73 74 76 78 80
1 2
1 3
3 7
7 8
8 11
11 12
12 13
13 14
14 15
15 16
16 19
19 20
20 21
21 23
23 24
24 25
19 18
25 9
18 17
16 22
17 10
10 6
6 5
11 4
